Maximize

97 dSta_0 + 3 d0_3 + 2 d0_3 + 0 d0_3.0 + 4 d0_3.0 + 4 d0_3 + 0 d0_3.0 + 0 d0_3.0 + 8 d0_3.0 + 5 d1_4 + 0 d1_4 + 0 d1_4.0 + 0 d1_4.0 + 0 d1_4 + 2 d1_4.0 + 0 d1_4.0 + 4 d1_4.0 + 3 d3_1 + 2 d3_1 + 0 d3_1.0 + 4 d3_1.0 + 2 d3_1 + 0 d3_1.0 + 0 d3_1.0 + 4 d3_1.0 + 8 d4_7 + 2 d4_7 + 0 d4_7.0 + 4 d4_7.0 + 2 d4_7 + 2 d4_7.0 + 0 d4_7.0 + 8 d4_7.0 + 5 d5_14 + 0 d5_14 + 0 d5_14.0 + 0 d5_14.0 + 2 d5_14 + 0 d5_14.0 + 0 d5_14.0 + 4 d5_14.0 + 4 d6_2 + 2 d6_2 + 2 d6_2.0 + 4 d6_2.0 + 2 d6_2 + 2 d6_2.0 + 0 d6_2.0 + 8 d6_2.0 + 2 d7_8 + 2 d7_8 + 2 d7_8.0 + 4 d7_8.0 + 6 d7_8 + 0 d7_8.0 + 0 d7_8.0 + 8 d7_8.0 + 1 d8_9 + 0 d8_9 + 0 d8_9.0 + 0 d8_9.0 + 0 d8_9 + 4 d8_9.0 + 0 d8_9.0 + 8 d8_9.0 + 28 d9_13 + 0 d9_13 + 0 d9_13.0 + 0 d9_13.0 + 0 d9_13 + 2 d9_13.0 + 0 d9_13.0 + 4 d9_13.0 + 4 dc10_11 + 2 dc10_11 + 0 dc10_11.0 + 404 dc10_11.0 + 4 dc10_11 + 0 dc10_11.0 + 0 dc10_11.0 + 4 dc10_11.0 + 7 dm10_11 + 2 dm10_11 + 0 dm10_11.0 + 404 dm10_11.0 + 4 dm10_11 + 0 dm10_11.0 + 0 dm10_11.0 + 4 dm10_11.0 + 1 dc10_9 + 2 dc10_9 + 0 dc10_9.0 + 404 dc10_9.0 + 4 dc10_9 + 0 dc10_9.0 + 0 dc10_9.0 + 4 dc10_9.0 + 4 dm10_9 + 2 dm10_9 + 0 dm10_9.0 + 404 dm10_9.0 + 4 dm10_9 + 0 dm10_9.0 + 0 dm10_9.0 + 4 dm10_9.0 + 8 dc11_12 + 0 dc11_12 + 0 dc11_12.0 + 0 dc11_12.0 + 2 dc11_12 + 2 dc11_12.0 + 0 dc11_12.0 + 8 dc11_12.0 + 11 dm11_12 + 0 dm11_12 + 0 dm11_12.0 + 0 dm11_12.0 + 2 dm11_12 + 2 dm11_12.0 + 0 dm11_12.0 + 8 dm11_12.0 + 2 dc11_8 + 0 dc11_8 + 0 dc11_8.0 + 0 dc11_8.0 + 2 dc11_8 + 2 dc11_8.0 + 0 dc11_8.0 + 8 dc11_8.0 + 5 dm11_8 + 0 dm11_8 + 0 dm11_8.0 + 0 dm11_8.0 + 2 dm11_8 + 2 dm11_8.0 + 0 dm11_8.0 + 8 dm11_8.0 + 2 d12_5 + 2 d12_5 + 0 d12_5.0 + 4 d12_5.0 + 4 d12_5 + 2 d12_5.0 + 0 d12_5.0 + 12 d12_5.0 + 5 d13_10 + 4 d13_10 + 0 d13_10.0 + 8 d13_10.0 + 0 d13_10 + 14 d13_10.0 + 0 d13_10.0 + 28 d13_10.0 + 2 d14_15 + 0 d14_15 + 0 d14_15.0 + 0 d14_15.0 + 4 d14_15 + 0 d14_15.0 + 0 d14_15.0 + 4 d14_15.0 + 3 d15_16 + 0 d15_16 + 0 d15_16.0 + 0 d15_16.0 + 0 d15_16 + 2 d15_16.0 + 0 d15_16.0 + 4 d15_16.0 + 3 dc16_17 + 2 dc16_17 + 0 dc16_17.0 + 396 dc16_17.0 + 0 dc16_17 + 2 dc16_17.0 + 0 dc16_17.0 + 4 dc16_17.0 + 6 dm16_17 + 2 dm16_17 + 0 dm16_17.0 + 396 dm16_17.0 + 0 dm16_17 + 2 dm16_17.0 + 0 dm16_17.0 + 4 dm16_17.0 + 2 dc16_18 + 2 dc16_18 + 0 dc16_18.0 + 396 dc16_18.0 + 0 dc16_18 + 2 dc16_18.0 + 0 dc16_18.0 + 4 dc16_18.0 + 5 dm16_18 + 2 dm16_18 + 0 dm16_18.0 + 396 dm16_18.0 + 0 dm16_18 + 2 dm16_18.0 + 0 dm16_18.0 + 4 dm16_18.0 + 4 d17_19 + 0 d17_19 + 0 d17_19.0 + 0 d17_19.0 + 0 d17_19 + 2 d17_19.0 + 0 d17_19.0 + 4 d17_19.0 + 4 d18_19 + 0 d18_19 + 0 d18_19.0 + 0 d18_19.0 + 0 d18_19 + 4 d18_19.0 + 0 d18_19.0 + 8 d18_19.0 + 4 dc19_20 + 0 dc19_20 + 0 dc19_20.0 + 0 dc19_20.0 + 0 dc19_20 + 4 dc19_20.0 + 0 dc19_20.0 + 8 dc19_20.0 + 7 dm19_20 + 0 dm19_20 + 0 dm19_20.0 + 0 dm19_20.0 + 0 dm19_20 + 4 dm19_20.0 + 0 dm19_20.0 + 8 dm19_20.0 + 2 dc19_16 + 0 dc19_16 + 0 dc19_16.0 + 0 dc19_16.0 + 0 dc19_16 + 4 dc19_16.0 + 0 dc19_16.0 + 8 dc19_16.0 + 6 dm19_16 + 0 dm19_16 + 0 dm19_16.0 + 0 dm19_16.0 + 0 dm19_16 + 4 dm19_16.0 + 0 dm19_16.0 + 8 dm19_16.0 + 5 dc20_21 + 0 dc20_21 + 0 dc20_21.0 + 0 dc20_21.0 + 0 dc20_21 + 4 dc20_21.0 + 0 dc20_21.0 + 8 dc20_21.0 + 8 dm20_21 + 0 dm20_21 + 0 dm20_21.0 + 0 dm20_21.0 + 0 dm20_21 + 4 dm20_21.0 + 0 dm20_21.0 + 8 dm20_21.0 + 2 dc20_15 + 0 dc20_15 + 0 dc20_15.0 + 0 dc20_15.0 + 0 dc20_15 + 4 dc20_15.0 + 0 dc20_15.0 + 8 dc20_15.0 + 5 dm20_15 + 0 dm20_15 + 0 dm20_15.0 + 0 dm20_15.0 + 0 dm20_15 + 4 dm20_15.0 + 0 dm20_15.0 + 8 dm20_15.0 + 5 d21_6 + 0 d21_6 + 2 d21_6.0 + 0 d21_6.0 + 2 d21_6 + 2 d21_6.0 + 0 d21_6.0 + 8 d21_6.0


Subject to

bm - dm11_8 - dm10_9 - dm10_11 - dm11_12 - dm20_15 - dm19_16 - dm16_17 - dm16_18 - dm19_20 - dm20_21 = 0

\ === tcfg constraints ===
dSta_0 = 1
b0 - d0_3 = 0
b0 - dSta_0 = 0
b1 - d1_4 = 0
b1 - d3_1 = 0
b2 - d6_2 = 0
b3 - d3_1 = 0
b3 - d0_3 = 0
b4 - d4_7 = 0
b4 - d1_4 = 0
b5 - d5_14 = 0
b5 - d12_5 = 0
b6 - d6_2 = 0
b6 - d21_6 = 0
b7 - d7_8 = 0
b7 - d4_7 = 0
b8 - d8_9 = 0
b8 - d7_8 - d11_8 = 0
b9 - d9_13 = 0
b9 - d8_9 - d10_9 = 0
b10 - d10_11 - d10_9 = 0
b10 - d13_10 = 0
b11 - d11_12 - d11_8 = 0
b11 - d10_11 = 0
b12 - d12_5 = 0
b12 - d11_12 = 0
b13 - d13_10 = 0
b13 - d9_13 = 0
b14 - d14_15 = 0
b14 - d5_14 = 0
b15 - d15_16 = 0
b15 - d14_15 - d20_15 = 0
b16 - d16_17 - d16_18 = 0
b16 - d15_16 - d19_16 = 0
b17 - d17_19 = 0
b17 - d16_17 = 0
b18 - d18_19 = 0
b18 - d16_18 = 0
b19 - d19_20 - d19_16 = 0
b19 - d17_19 - d18_19 = 0
b20 - d20_21 - d20_15 = 0
b20 - d19_20 = 0
b21 - d21_6 = 0
b21 - d20_21 = 0

c0 - f0_2T - f0_1N <= 0
c0 - f0_2T - f0_1N >= 0
c0 <= 1
c0 >= 0
c1 - f1_2T - f1_3N <= 0
c1 - f1_2T - f1_3N >= 0
c1 - f0_1N <= 0
c1 - f0_1N >= 0
c2 - f2_5T - f2_4N <= 0
c2 - f2_5T - f2_4N >= 0
c2 - f4_2T - f1_2T - f0_2T <= 0
c2 - f4_2T - f1_2T - f0_2T >= 0
c3 - f3_7T - f3_6N <= 0
c3 - f3_7T - f3_6N >= 0
c3 - f4_3N - f1_3N <= 0
c3 - f4_3N - f1_3N >= 0
c4 - f4_2T - f4_3N <= 0
c4 - f4_2T - f4_3N >= 0
c4 - f5_4N - f2_4N <= 0
c4 - f5_4N - f2_4N >= 0
c5 - f5_5T - f5_4N <= 0
c5 - f5_5T - f5_4N >= 0
c5 - f5_5T - f2_5T <= 0
c5 - f5_5T - f2_5T >= 0
c6 - f6_9T - f6_8N <= 0
c6 - f6_9T - f6_8N >= 0
c6 - f3_6N <= 0
c6 - f3_6N >= 0
c7 - f7_11T - f7_10N <= 0
c7 - f7_11T - f7_10N >= 0
c7 - f3_7T <= 0
c7 - f3_7T >= 0
c8 - f8_9T <= 1
c8 - f8_9T >= 0
c8 - f12_8N - f6_8N <= 0
c8 - f12_8N - f6_8N >= 0
c9 - f9_13T - f9_12N <= 0
c9 - f9_13T - f9_12N >= 0
c9 - f12_9T - f10_9T - f8_9T - f6_9T <= 0
c9 - f12_9T - f10_9T - f8_9T - f6_9T >= 0
c10 - f10_9T <= 1
c10 - f10_9T >= 0
c10 - f13_10N - f7_10N <= 0
c10 - f13_10N - f7_10N >= 0
c11 - f11_13T - f11_12N <= 0
c11 - f11_13T - f11_12N >= 0
c11 - f13_11T - f7_11T <= 0
c11 - f13_11T - f7_11T >= 0
c12 - f12_9T - f12_8N <= 0
c12 - f12_9T - f12_8N >= 0
c12 - f11_12N - f9_12N <= 0
c12 - f11_12N - f9_12N >= 0
c13 - f13_11T - f13_10N <= 0
c13 - f13_11T - f13_10N >= 0
c13 - f11_13T - f9_13T <= 0
c13 - f11_13T - f9_13T >= 0


f0_2T - fc0_2T - fm0_2T = 0
f0_1N - fc0_1N - fm0_1N = 0
f1_2T - fc1_2T - fm1_2T = 0
f1_3N - fc1_3N - fm1_3N = 0
f2_5T - fc2_5T - fm2_5T = 0
f2_4N - fc2_4N - fm2_4N = 0
f3_7T - fc3_7T - fm3_7T = 0
f3_6N - fc3_6N - fm3_6N = 0
f4_2T - fc4_2T - fm4_2T = 0
f4_3N - fc4_3N - fm4_3N = 0
f5_5T - fc5_5T - fm5_5T = 0
f5_4N - fc5_4N - fm5_4N = 0
f6_9T - fc6_9T - fm6_9T = 0
f6_8N - fc6_8N - fm6_8N = 0
f7_11T - fc7_11T - fm7_11T = 0
f7_10N - fc7_10N - fm7_10N = 0
f8_9T - fc8_9T - fm8_9T = 0
f9_13T - fc9_13T - fm9_13T = 0
f9_12N - fc9_12N - fm9_12N = 0
f10_9T - fc10_9T - fm10_9T = 0
f11_13T - fc11_13T - fm11_13T = 0
f11_12N - fc11_12N - fm11_12N = 0
f12_9T - fc12_9T - fm12_9T = 0
f12_8N - fc12_8N - fm12_8N = 0
f13_11T - fc13_11T - fm13_11T = 0
f13_10N - fc13_10N - fm13_10N = 0

c0 <= 1
c0 >= 0
c1 <= 1
c1 >= 0
c2 - p2_2N - p2_2T <= 1
c2 - p2_2N - p2_2T >= 0
c3 <= 1
c3 >= 0
c4 - p4_4T <= 1
c4 - p4_4T >= 0
c5 - p5_5N - p5_5T <= 1
c5 - p5_5N - p5_5T >= 0
c6 <= 1
c6 >= 0
c7 <= 1
c7 >= 0
c8 - p8_8T <= 1
c8 - p8_8T >= 0
c9 - p9_9N - p9_9T <= 1
c9 - p9_9N - p9_9T >= 0
c10 - p10_10T <= 1
c10 - p10_10T >= 0
c11 - p11_11N - p11_11T <= 1
c11 - p11_11N - p11_11T >= 0
c12 - p12_12N - p12_12T <= 1
c12 - p12_12N - p12_12T >= 0
c13 - p13_13N - p13_13T <= 1
c13 - p13_13N - p13_13T >= 0

f0_2T <= 1
f0_2T >= 0
f0_1N <= 1
f0_1N >= 0
f1_2T <= 1
f1_2T >= 0
f1_3N <= 1
f1_3N >= 0
f2_5T - p2_2T <= 1
f2_5T - p2_2T >= 0
f2_4N - p2_2N <= 1
f2_4N - p2_2N >= 0
f3_7T <= 1
f3_7T >= 0
f3_6N <= 1
f3_6N >= 0
f4_2T - p4_4T <= 0
f4_2T - p4_4T >= 0
f4_3N <= 1
f4_3N >= 0
f5_5T - p5_5T <= 0
f5_5T - p5_5T >= 0
f5_4N - p5_5N <= 1
f5_4N - p5_5N >= 0
f6_9T <= 1
f6_9T >= 0
f6_8N <= 1
f6_8N >= 0
f7_11T <= 1
f7_11T >= 0
f7_10N <= 1
f7_10N >= 0
f8_9T - p8_8T <= 1
f8_9T - p8_8T >= 0
f9_13T - p9_9T <= 1
f9_13T - p9_9T >= 0
f9_12N - p9_9N <= 1
f9_12N - p9_9N >= 0
f10_9T - p10_10T <= 1
f10_9T - p10_10T >= 0
f11_13T - p11_11T <= 1
f11_13T - p11_11T >= 0
f11_12N - p11_11N <= 1
f11_12N - p11_11N >= 0
f12_9T - p12_12T <= 1
f12_9T - p12_12T >= 0
f12_8N - p12_12N <= 1
f12_8N - p12_12N >= 0
f13_11T - p13_13T <= 1
f13_11T - p13_13T >= 0
f13_10N - p13_13N <= 1
f13_10N - p13_13N >= 0

fm0_2T <= 1
fm0_1N <= 1
fm1_2T <= 1
fm1_3N <= 1
fm2_5T - p2_2N <= 1
fm2_4N - p2_2T <= 1
fm3_7T <= 1
fm3_6N <= 1
fm4_2T <= 1
fm4_3N - p4_4T <= 1
fm5_5T - p5_5N <= 1
fm5_4N - p5_5T <= 1
fm6_9T <= 1
fm6_8N <= 1
fm7_11T <= 1
fm7_10N <= 1
fm8_9T <= 1
fm9_13T - p9_9N <= 1
fm9_12N - p9_9T <= 1
fm10_9T <= 1
fm11_13T - p11_11N <= 1
fm11_12N - p11_11T <= 1
fm12_9T - p12_12N <= 1
fm12_8N - p12_12T <= 1
fm13_11T - p13_13N <= 1
fm13_10N - p13_13T <= 1

b10 - c0 - c5 - c2 = 0
b11 - c4 - c1 = 0
b16 - c9 - c3 - c11 = 0
b19 - c7 - c6 - c13 - c12 = 0
b20 - c10 - c8 = 0
d10_11 - dc10_11 - dm10_11 = 0
d10_9 - dc10_9 - dm10_9 = 0
d11_12 - dc11_12 - dm11_12 = 0
d11_8 - dc11_8 - dm11_8 = 0
d16_17 - dc16_17 - dm16_17 = 0
d16_18 - dc16_18 - dm16_18 = 0
d19_20 - dc19_20 - dm19_20 = 0
d19_16 - dc19_16 - dm19_16 = 0
d20_21 - dc20_21 - dm20_21 = 0
d20_15 - dc20_15 - dm20_15 = 0
d10_11 - f0_1N - f5_4N - f2_4N = 0
dm10_11 - fm0_1N - fm5_4N - fm2_4N = 0
d10_9 - f0_2T - f5_5T - f2_5T = 0
dm10_9 - fm0_2T - fm5_5T - fm2_5T = 0
d11_12 - f4_3N - f1_3N = 0
dm11_12 - fm4_3N - fm1_3N = 0
d11_8 - f4_2T - f1_2T = 0
dm11_8 - fm4_2T - fm1_2T = 0
d16_17 - f9_12N - f3_6N - f11_12N = 0
dm16_17 - fm9_12N - fm3_6N - fm11_12N = 0
d16_18 - f9_13T - f3_7T - f11_13T = 0
dm16_18 - fm9_13T - fm3_7T - fm11_13T = 0
d19_20 - f7_10N - f6_8N - f13_10N - f12_8N = 0
dm19_20 - fm7_10N - fm6_8N - fm13_10N - fm12_8N = 0
d19_16 - f7_11T - f6_9T - f13_11T - f12_9T = 0
dm19_16 - fm7_11T - fm6_9T - fm13_11T - fm12_9T = 0
d20_21 <= 1
dm20_21 <= 1
d20_15 - f10_9T - f8_9T = 0
dm20_15 - fm10_9T - fm8_9T = 0


\ === tcfg_estunit_cons_ps ===
d0_3 - d0_3.0 >= 0
d0_3.0 <= 1
d1_4 - d1_4.0 >= 0
d1_4.0 <= 1
d3_1 - d3_1.0 >= 0
d3_1.0 <= 1
d4_7 - d4_7.0 >= 0
d4_7.0 <= 1
d5_14 - d5_14.0 >= 0
d5_14.0 <= 1
d6_2 - d6_2.0 >= 0
d6_2.0 <= 1
d7_8 - d7_8.0 >= 0
d7_8.0 <= 1
d8_9 - d8_9.0 >= 0
d8_9.0 <= 1
d9_13 - d9_13.0 >= 0
d9_13.0 <= 1
d10_11 - d10_11.0 >= 0
d10_11.0 <= 1
d10_9 - d10_9.0 >= 0
d10_9.0 <= 1
d11_12 - d11_12.0 >= 0
d11_12.0 <= 1
d11_8 - d11_8.0 >= 0
d11_8.0 <= 1
d12_5 - d12_5.0 >= 0
d12_5.0 <= 1
d13_10 - d13_10.0 >= 0
d13_10.0 <= 1
d14_15 - d14_15.0 >= 0
d14_15.0 <= 1
d15_16 - d15_16.0 >= 0
d15_16.0 <= 1
d16_17 - d16_17.0 >= 0
d16_17.0 <= 1
d16_18 - d16_18.0 >= 0
d16_18.0 <= 1
d17_19 - d17_19.0 >= 0
d17_19.0 <= 1
d18_19 - d18_19.0 >= 0
d18_19.0 <= 1
d19_20 - d19_20.0 >= 0
d19_20.0 <= 1
d19_16 - d19_16.0 >= 0
d19_16.0 <= 1
d20_21 - d20_21.0 >= 0
d20_21.0 <= 1
d20_15 - d20_15.0 >= 0
d20_15.0 <= 1
d21_6 - d21_6.0 >= 0
d21_6.0 <= 1

\ === infeasible path constraints ===

b0 = 1
b1 = 1
b2 = 1
b4 = 1
b5 = 1
b6 = 1
b7 = 1
b8 = 40
b9 = 1600
b10 = 1600
b11 = 40
b12 = 1
b3 = 1
b14 = 1
b15 = 40
b16 = 1600
b19 = 1600
b20 = 40
b21 = 1
b13 = 1600

Generals

bm
Sta
b0
d0_3
b1
d1_4
b2
b3
d3_1
b4
d4_7
b5
d5_14
b6
d6_2
b7
d7_8
b8
d8_9
b9
d9_13
b10
d10_11
d10_9
b11
d11_12
d11_8
b12
d12_5
b13
d13_10
b14
d14_15
b15
d15_16
b16
d16_17
d16_18
b17
d17_19
b18
d18_19
b19
d19_20
d19_16
b20
d20_21
d20_15
b21
d21_6
c0
f0_2T
f0_1N
f0_2T
f0_1N
c1
f1_2T
f1_3N
f1_2T
f1_3N
c2
f2_5T
f2_4N
f2_5T
f2_4N
c3
f3_7T
f3_6N
f3_7T
f3_6N
c4
f4_2T
f4_3N
f4_2T
f4_3N
c5
f5_5T
f5_4N
f5_5T
f5_4N
c6
f6_9T
f6_8N
f6_9T
f6_8N
c7
f7_11T
f7_10N
f7_11T
f7_10N
c8
f8_9T
f8_9T
c9
f9_13T
f9_12N
f9_13T
f9_12N
c10
f10_9T
f10_9T
c11
f11_13T
f11_12N
f11_13T
f11_12N
c12
f12_9T
f12_8N
f12_9T
f12_8N
c13
f13_11T
f13_10N
f13_11T
f13_10N
fc0_2T
fm0_2T
fc0_1N
fm0_1N
fc1_2T
fm1_2T
fc1_3N
fm1_3N
fc2_5T
fm2_5T
fc2_4N
fm2_4N
fc3_7T
fm3_7T
fc3_6N
fm3_6N
fc4_2T
fm4_2T
fc4_3N
fm4_3N
fc5_5T
fm5_5T
fc5_4N
fm5_4N
fc6_9T
fm6_9T
fc6_8N
fm6_8N
fc7_11T
fm7_11T
fc7_10N
fm7_10N
fc8_9T
fm8_9T
fc9_13T
fm9_13T
fc9_12N
fm9_12N
fc10_9T
fm10_9T
fc11_13T
fm11_13T
fc11_12N
fm11_12N
fc12_9T
fm12_9T
fc12_8N
fm12_8N
fc13_11T
fm13_11T
fc13_10N
fm13_10N
dc10_11
dm10_11
dc10_9
dm10_9
dc11_12
dm11_12
dc11_8
dm11_8
dc16_17
dm16_17
dc16_18
dm16_18
dc19_20
dm19_20
dc19_16
dm19_16
dc20_21
dm20_21
dc20_15
dm20_15

End
\ total_cons: 340 	total_vars: 188
